MAX: Total_Biomass;
Total_Biomass = Het_C.FinalMass;
Het_C.InitialMass = 0.5;
DOM_C.InitialMass = 1;
NH4_N.InitialMass = 0;
NO3_N.InitialMass = 0;
O2_O.InitialMass = 10;
CO2_C.InitialMass = 0;
Ox_O.InitialMass = 0;
Het_N.InitialMass = 0.150943396226415 Het_C.InitialMass;
DOM_N.InitialMass = 0.150943396226415 DOM_C.InitialMass;
Het_N.FinalMass = 0.150943396226415 Het_C.FinalMass;
DOM_N.FinalMass = 0.150943396226415 DOM_C.FinalMass;
-Inf < Het.RespEnergy <= 0;
-Inf < HetAssimDOM.Energy <= 0;
-Inf < HetAssimNO3.Energy <= 0;
-Inf < HetAssimNH4.Energy <= 0;
-Inf < CO2_C.FinalMass < +Inf;
-Inf < Ox_O.FinalMass < +Inf;
Het.RespEnergy = -2.83e-06 Het_C.FinalMass;
Het.Energy = HetAssimDOM.Energy + HetAssimNO3.Energy + HetAssimNH4.Energy + HetAerobicofHet.Energy + HetAerobicofDOM.Energy;
0 = Het.RespEnergy + Het.Energy;
HetAssimDOM_DOM_C_Het_C.MassTrans = -0.000432 HetAssimDOM.Energy;
HetAssimDOM_DOM_N_Het_N.MassTrans = -0.002862 HetAssimDOM.Energy;
HetAssimNO3_NO3_N_Het_N.MassTrans = -0.000155 HetAssimNO3.Energy;
HetAssimNH4_NH4_N_Het_N.MassTrans = -3.18e-05 HetAssimNH4.Energy;
HetAerobicofHet_Het_C_CO2_C.MassTrans = 0.37 HetAerobicofHet.Energy;
HetAerobicofHet_Het_N_NH4_N.MassTrans = 2.45125 HetAerobicofHet.Energy;
HetAerobicofHet_O2_O_Ox_O.MassTrans = 0.185 HetAerobicofHet.Energy;
HetAerobicofDOM_DOM_C_CO2_C.MassTrans = 0.37 HetAerobicofDOM.Energy;
HetAerobicofDOM_DOM_N_NH4_N.MassTrans = 2.45125 HetAerobicofDOM.Energy;
HetAerobicofDOM_O2_O_Ox_O.MassTrans = 0.185 HetAerobicofDOM.Energy;
Het_C.FinalMass = Het_C.InitialMass + HetAssimDOM_DOM_C_Het_C.MassTrans - HetAerobicofHet_Het_C_CO2_C.MassTrans;
Het_N.FinalMass = Het_N.InitialMass + HetAssimDOM_DOM_N_Het_N.MassTrans + HetAssimNO3_NO3_N_Het_N.MassTrans + HetAssimNH4_NH4_N_Het_N.MassTrans - HetAerobicofHet_Het_N_NH4_N.MassTrans;
DOM_C.FinalMass = DOM_C.InitialMass - HetAssimDOM_DOM_C_Het_C.MassTrans - HetAerobicofDOM_DOM_C_CO2_C.MassTrans;
DOM_N.FinalMass = DOM_N.InitialMass - HetAssimDOM_DOM_N_Het_N.MassTrans - HetAerobicofDOM_DOM_N_NH4_N.MassTrans;
NH4_N.FinalMass = NH4_N.InitialMass + HetAerobicofHet_Het_N_NH4_N.MassTrans + HetAerobicofDOM_DOM_N_NH4_N.MassTrans - HetAssimNH4_NH4_N_Het_N.MassTrans;
NO3_N.FinalMass = NO3_N.InitialMass - HetAssimNO3_NO3_N_Het_N.MassTrans;
O2_O.FinalMass = O2_O.InitialMass - HetAerobicofHet_O2_O_Ox_O.MassTrans - HetAerobicofDOM_O2_O_Ox_O.MassTrans;
CO2_C.FinalMass = CO2_C.InitialMass + HetAerobicofHet_Het_C_CO2_C.MassTrans + HetAerobicofDOM_DOM_C_CO2_C.MassTrans;
Ox_O.FinalMass = Ox_O.InitialMass + HetAerobicofHet_O2_O_Ox_O.MassTrans + HetAerobicofDOM_O2_O_Ox_O.MassTrans;
Het_C.InitialMass >= HetAerobicofHet_Het_C_CO2_C.MassTrans;
Het_N.InitialMass >= HetAerobicofHet_Het_N_NH4_N.MassTrans;
DOM_C.InitialMass >= HetAssimDOM_DOM_C_Het_C.MassTrans + HetAerobicofDOM_DOM_C_CO2_C.MassTrans;
DOM_N.InitialMass >= HetAssimDOM_DOM_N_Het_N.MassTrans + HetAerobicofDOM_DOM_N_NH4_N.MassTrans;
NO3_N.InitialMass >= HetAssimNO3_NO3_N_Het_N.MassTrans;
O2_O.InitialMass >= HetAerobicofHet_O2_O_Ox_O.MassTrans + HetAerobicofDOM_O2_O_Ox_O.MassTrans;
